Route #1: 43 23 22 50 38 9 12 5 40
Route #2: 46 8 28 51 14 44 17 10 18
Route #3: 45 41 29 37 15 7 19
Route #4: 21 26 4 39 47 42 24 6 53
Route #5: 25 1 52 16 35 27
Route #6: 48 32 36 3
Route #7: 13 49 33 11 55 20 31 34 54 30 2
Cost 710
Time 0.105087
